Models_gurobi/lp/ReLU3_Adv3.ilp
\ Model ReLU3_Adv3_copy
\ LP format - for model browsing. Use MPS format to capture full model detail.
Minimize
 
Subject To
 R0: C0 <= -0.00564947798848152
 R1: C0 >= -0.1056494779884815
 R2: C1 <= -0.5146795034408569
 R3: C1 >= -0.614679503440857
 R9: - 0.9693846106529236 C2 - 0.9258254766464233 C3
   - 0.3390353620052338 C4 - 0.7307649850845337 C5 + 0.2423717379570007 C6
   - C7 <= -1.421692490577698
 R13: - 0.6389849781990051 C2 - 0.9327406287193298 C3
   - 0.2799509167671204 C4 - 0.7450659275054932 C5 + 0.3821263909339905 C6
   - C11 <= -1.422731399536133
 R14: C15 >= 1
 qc0: 0.0928314924240112 C2 + [ - 0.0753291845321655 C0 * C2
   + 1.114035964012146 C1 * C2 + C2 ^2 ] = 0
 qc1: 0.1082045286893845 C3 + [ 1.167282223701477 C0 * C3
   - 1.203707456588745 C1 * C3 + C3 ^2 ] = 0
 qc2: - 0.0804063975811005 C4 + [ 0.8903266787528992 C0 * C4
   + 0.9813874363899231 C1 * C4 + C4 ^2 ] = 0
 qc3: 0.0248057637363672 C5 + [ - 1.563035368919373 C0 * C5
   - 0.5593789219856262 C1 * C5 + C5 ^2 ] = 0
 qc4: - 0.1811108142137527 C6 + [ 0.0110031198710203 C0 * C6
   + 0.6604059338569641 C1 * C6 + C6 ^2 ] = 0
 qc5: 0.5296650528907776 C8 + [ - 1.199151515960693 C2 * C8
   - 0.7078672647476196 C3 * C8 - 0.9603973031044006 C4 * C8
   - 0.6229439377784729 C5 * C8 - 0.779810905456543 C6 * C8 + C8 ^2 ] = 0
 qc6: 0.3746069371700287 C9 + [ 0.08293217420578 C2 * C9
   - 0.7702887058258057 C3 * C9 - 0.1906168609857559 C4 * C9
   - 0.6891176104545593 C5 * C9 + 0.2377769201993942 C6 * C9 + C9 ^2 ] = 0
 qc7: 0.5909470915794373 C10 + [ - 0.5217834115028381 C2 * C10
   - 0.9133946299552917 C3 * C10 - 0.7733832001686096 C4 * C10
   - 1.3427734375 C5 * C10 - 0.2427302151918411 C6 * C10 + C10 ^2 ] = 0
 qc8: - 0.6442381541673095 C15 + [ - 2.115140452855826 C7 * C15
   + 2.025900482207537 C8 * C15 + 1.100962692713737 C9 * C15
   + 2.038868579816818 C10 * C15 - 2.147832478958368 C11 * C15 ] >= 0
Bounds
 C0 free
 C1 free
 C2 free
 C3 free
 C4 free
 C5 free
 C6 free
 C7 free
 C8 free
 C9 free
 C10 free
 C11 free
Binaries
 C15
End
