Models_gurobi/lp/ReLU3_Adv3.lp
\ Model ReLU3_Adv3
\ LP format - for model browsing. Use MPS format to capture full model detail.
Minimize
  0.1 C5 - 0.55 C6 - 0.1 C7 - 0.4 C8 + 0 C9 + 0 C10 + 0 C11 + 0 C12
   + 0.6 Constant
Subject To
 R0: C0 <= 3.6
 R1: C0 >= -2.4
 R2: C1 <= 2.7
 R3: C1 >= -3.3
 R4: C2 <= 3.4
 R5: C2 >= -2.6
 R6: 0.3 C0 - 0.15 C1 + 0.3 C2 - C3 <= 0.2
 R7: - 0.2 C0 - 0.5 C1 + 0.5 C2 - C4 <= -0.1
 R8: 0.3 C3 + 0.3 C4 - C5 <= -0.3
 R9: - 0.2 C3 - 0.2 C4 - C6 <= 0.2
 R10: - 0.15 C3 - 0.15 C4 - C7 <= -0.3
 R11: 0.6 C3 + 0.6 C4 - C8 <= 0.1
 R12: C13 + C14 >= 1
 qc0: 0.2 C3 + [ - 0.3 C0 * C3 + 0.15 C1 * C3 - 0.3 C2 * C3 + C3 ^2 ] = 0
 qc1: - 0.1 C4 + [ 0.2 C0 * C4 + 0.5 C1 * C4 - 0.5 C2 * C4 + C4 ^2 ] = 0
 qc2: - 0.3 C5 + [ - 0.3 C3 * C5 - 0.3 C4 * C5 + C5 ^2 ] = 0
 qc3: 0.2 C6 + [ 0.2 C3 * C6 + 0.2 C4 * C6 + C6 ^2 ] = 0
 qc4: - 0.3 C7 + [ 0.15 C3 * C7 + 0.15 C4 * C7 + C7 ^2 ] = 0
 qc5: 0.1 C8 + [ - 0.6 C3 * C8 - 0.6 C4 * C8 + C8 ^2 ] = 0
 qc6: - 0.7002 C13 + [ - 0.5003 C5 * C13 - 0.0499 C6 * C13
   + 0.3005 C7 * C13 + 0.1997 C8 * C13 ] >= 0
 qc7: - 0.6001 C13 + [ - 0.6004 C5 * C13 - 0.7506 C6 * C13
   + 0.0002 C7 * C13 + 0.2998 C8 * C13 ] >= 0
 qc8: - 0.1002 C14 + [ 0.0997 C5 * C14 + 0.7001 C6 * C14 + 0.3005 C7 * C14
   - 0.1003 C8 * C14 ] >= 0
 qc9: 0.6005 C14 + [ 0.6002 C5 * C14 + 0.75015 C6 * C14 + 0.0002 C7 * C14
   - 0.3005 C8 * C14 ] >= 0
Bounds
 C0 >= -1500
 C1 >= -1500
 C2 >= -1500
 C12 <= 1
 C13 <= 1
 C14 <= 1
 Constant = 1
End
